0.750000 0.250000 1.000000
5
4 2 3 4 5 
4 6 7 8 9 
4 10 11 12 13 
4 14 15 16 17 
4 18 19 20 21 
1 1 
1 2 
1 2 
1 2 
1 2 
1 2 
1 2 
1 2 
1 2 
1 2 
1 2 
1 2 
1 2 
1 3 
1 3 
1 3 
1 3 
1 3 
1 3 
1 3 
1 3 
1 3 
1 3 
1 3 
1 3 
1 4 
1 4 
1 4 
1 4 
1 4 
1 4 
1 4 
1 4 
1 4 
1 4 
1 4 
1 4 
1 5 
1 5 
1 5 
1 5 
1 5 
1 5 
1 5 
1 5 
1 5 
1 5 
2 5 4 
2 5 4 
1 1 
1 6 
1 6 
1 6 
1 6 
1 6 
1 6 
1 6 
1 6 
1 6 
1 6 
1 6 
1 6 
1 7 
1 7 
1 7 
1 7 
1 7 
1 7 
1 7 
1 7 
2 7 2 
1 7 
1 7 
2 7 2 
1 8 
2 8 6 
2 8 6 
1 8 
1 8 
1 8 
2 8 6 
2 8 6 
2 8 6 
2 8 6 
1 8 
2 8 6 
1 9 
1 9 
1 9 
1 9 
1 9 
1 9 
1 9 
1 9 
1 9 
1 9 
1 9 
1 9 
1 1 
1 10 
1 10 
1 10 
1 10 
1 10 
1 10 
2 10 8 
1 10 
1 10 
1 10 
1 10 
2 10 8 
1 11 
1 11 
1 11 
1 11 
1 11 
1 11 
1 11 
1 11 
1 11 
1 11 
1 11 
1 11 
1 12 
1 12 
1 12 
1 12 
1 12 
1 12 
1 12 
1 12 
1 12 
2 12 3 
1 12 
2 12 3 
1 13 
1 13 
1 13 
1 13 
1 13 
1 13 
1 13 
1 13 
1 13 
1 13 
1 13 
1 13 
1 1 
1 14 
1 14 
1 14 
1 14 
1 14 
1 14 
1 14 
2 14 7 
1 14 
1 14 
1 14 
1 14 
1 14 
1 14 
1 14 
1 14 
1 14 
1 14 
1 14 
1 14 
1 14 
2 14 7 
1 15 
1 15 
1 15 
1 15 
1 15 
1 15 
1 15 
1 15 
1 15 
1 15 
1 15 
1 15 
1 16 
2 16 12 
2 16 12 
1 16 
2 16 12 
2 16 12 
1 16 
2 16 12 
1 16 
1 16 
2 16 12 
1 16 
1 16 
1 16 
1 16 
1 16 
1 16 
1 16 
1 16 
1 16 
3 16 10 15 
4 16 10 12 15 
1 17 
1 17 
1 17 
1 17 
1 17 
2 17 13 
1 17 
1 17 
2 17 13 
2 17 13 
2 17 13 
2 17 13 
2 17 13 
1 17 
1 17 
1 17 
1 17 
1 17 
1 17 
1 17 
1 17 
2 17 13 
1 18 
2 18 17 
1 18 
1 18 
4 18 9 14 17 
4 18 9 14 17 
4 18 9 14 17 
4 18 9 14 17 
2 18 17 
2 18 16 
1 18 
5 18 9 14 16 17 
1 19 
1 19 
1 19 
1 19 
1 19 
1 19 
1 19 
1 19 
1 19 
1 19 
1 19 
1 19 
1 20 
1 20 
1 20 
1 20 
1 20 
1 20 
1 20 
1 20 
1 20 
1 20 
1 20 
1 20 
1 21 
2 21 11 
2 21 20 
7 21 11 18 9 14 17 20 
1 21 
1 21 
5 21 5 11 19 20 
7 21 11 18 9 14 17 20 
2 21 11 
2 21 11 
1 21 
9 21 5 11 18 9 14 17 19 20 
1 1 
